\* Problem: Unknown *\

Maximize
 obj: + xp_0_0 + xp_0_1 + xp_0_2 + xp_0_3 + xp_0_4 + xp_0_5 + xp_0_6
 + xp_1_0 + xp_1_1 + xp_2_0 + xp_2_1 + xp_2_2 + xp_2_3 + xp_2_4 + xp_3_0
 + xp_3_1 + xp_3_2 + xp_4_0 + xp_5_0 + xp_5_1 + xp_5_2 + xp_6_0 + xp_6_1
 + xp_6_2 + xp_7_0 + xp_7_1 + xp_8_0 + xp_9_0 + xp_10_0 + xp_11_0
 + xp_11_1 + xp_11_2 + xp_11_3 + xp_12_0 + xp_13_0 + xp_13_1 + xp_14_0
 + xp_14_1 + xp_15_0 + xp_16_0 + xp_17_0 + xp_17_1 + xp_17_2 + xp_17_3
 + xp_18_0 + xp_18_1 + xp_18_2 + xp_18_3 + xp_19_0 + xp_19_1 + xp_19_2
 + xp_19_3 + xp_20_0 + xp_20_1 + xp_20_2 + xp_21_0 + xp_21_1 + xp_21_2
 + xp_21_3 + xp_22_0 + xp_22_1 + xp_22_2 + xp_22_3 + xp_23_0 + xp_23_1
 + xp_23_2

Subject To
 r_1: 0 xp_0_0 <= 26.2815479528884
 r_2: + xp_18_3 + xp_5_1 + xp_2_3 <= 26.1838588989845
 r_3: + xp_18_2 + xp_6_2 <= 26.7924528301887
 r_4: + xp_17_3 + xp_15_0 + xp_0_4 <= 27.941473259334
 r_5: + xp_18_0 <= 25.7482284285119
 r_6: + xp_18_1 + xp_0_6 <= 26.7924528301887
 r_7: 0 xp_0_0 <= 26.2815479528884
 r_8: + xp_11_3 + xp_5_2 + xp_3_2 + xp_2_1 <= 26.1838588989845
 r_9: + xp_23_2 + xp_11_1 + xp_3_1 <= 26.7924528301887
 r_10: + xp_17_2 + xp_3_0 <= 27.941473259334
 r_11: + xp_18_1 + xp_11_2 + xp_0_6 <= 25.7482284285119
 r_12: + xp_11_0 <= 26.7924528301887
 r_13: 0 xp_0_0 <= 28.7484662576687
 r_14: + xp_21_2 + xp_14_0 + xp_0_3 + xp_0_1 <= 26.1838588989845
 r_15: + xp_21_0 + xp_19_3 <= 26.7924528301887
 r_16: + xp_22_2 + xp_21_1 + xp_0_5 + xp_0_2 <= 28.3056478405316
 r_17: + xp_0_0 <= 25.7482284285119
 r_18: + xp_4_0 + xp_0_6 + xp_0_4 <= 26.2815479528884
 r_19: + xp_19_0 <= 26.2815479528884
 r_20: + xp_21_3 + xp_19_2 + xp_19_1 + xp_14_1 <= 28.7484662576687
 r_21: + xp_20_1 <= 26.1838588989845
 r_22: + xp_21_2 + xp_7_1 <= 26.7924528301887
 r_23: + xp_22_3 <= 28.3056478405316
 r_24: + xp_6_1 + xp_3_2 + xp_0_3 <= 27.1553784860558
 r_25: 0 xp_0_0 <= 28.7484662576687
 r_26: + xp_18_3 + xp_0_1 <= 25.7482284285119
 r_27: + xp_11_3 <= 26.1838588989845
 r_28: + xp_19_2 <= 26.1838588989845
 r_29: + xp_20_2 <= 26.7924528301887
 r_30: + xp_2_0 <= 26.7924528301887
 r_31: + xp_23_2 + xp_18_2 + xp_6_2 + xp_3_1 + xp_2_4
 <= 27.1553784860558
 r_32: + xp_2_2 <= 28.7484662576687
 r_33: + xp_11_1 + xp_2_3 <= 26.7924528301887
 r_34: + xp_19_3 + xp_2_1 <= 26.7924528301887
 r_35: 0 xp_0_0 <= 28.3056478405316
 r_36: + xp_9_0 <= 28.3056478405316
 r_37: + xp_21_1 + xp_13_1 <= 27.1553784860558
 r_38: + xp_1_1 <= 28.3056478405316
 r_39: + xp_17_1 + xp_0_5 <= 27.941473259334
 r_40: + xp_0_2 <= 25.7482284285119
 r_41: + xp_12_0 + xp_2_4 <= 27.1553784860558
 r_42: + xp_21_1 <= 27.1553784860558
 r_43: + xp_16_0 <= 27.1553784860558
 r_44: + xp_23_2 + xp_23_1 <= 27.1553784860558
 r_45: + xp_3_2 + xp_3_1 <= 27.941473259334
 r_46: + xp_18_2 + xp_0_3 <= 25.7482284285119
 r_47: + xp_22_1 + xp_13_1 <= 28.3056478405316
 r_48: + xp_13_0 <= 27.1553784860558
 r_49: 0 xp_0_0 <= 27.941473259334
 r_50: 0 xp_0_0 <= 25.7482284285119
 r_51: + xp_1_1 <= 27.941473259334
 r_52: + xp_8_0 <= 27.941473259334
 r_53: + xp_1_0 <= 27.941473259334
 r_54: + xp_0_5 + xp_0_4 <= 25.7482284285119
 r_55: 0 xp_0_0 <= 27.941473259334
 r_56: 0 xp_0_0 <= 27.941473259334
 r_57: + xp_22_2 <= 25.7482284285119
 r_58: + xp_22_3 + xp_6_1 + xp_5_0 <= 25.7482284285119
 r_59: + xp_22_0 + xp_17_1 <= 25.7482284285119
 r_60: + xp_23_1 + xp_6_0 <= 25.7482284285119
 r_61: + xp_23_0 + xp_22_1 <= 25.7482284285119
 r_62: + xp_17_0 <= 25.7482284285119
 r_63: + xp_17_3 + xp_11_2 + xp_6_2 + xp_5_1 <= 25.7482284285119
 r_64: + xp_23_2 + xp_17_2 + xp_5_2 <= 25.7482284285119
 r_65: + xp_20_1 + xp_19_2 + xp_14_1 + xp_7_1 + xp_2_2
 <= 28.7484662576687
 r_66: + xp_21_3 + xp_20_2 + xp_7_0 <= 28.7484662576687
 r_67: + xp_19_1 + xp_10_0 <= 28.7484662576687
 r_68: + xp_20_0 <= 28.7484662576687

Bounds
 0 <= xp_0_0 <= 28.3655978078669
 0 <= xp_0_1 <= 7.25347048758649
 0 <= xp_0_2 <= 13.4939250349493
 0 <= xp_0_3 <= 5.87572274961812
 0 <= xp_0_4 <= 1.37774773796837
 0 <= xp_0_5 <= 4.49797501164976
 0 <= xp_0_6 <= 1.37774773796837
 0 <= xp_1_0 <= 18.7347855995231
 0 <= xp_1_1 <= 16.1143553172362
 0 <= xp_2_0 <= 23.7190456856323
 0 <= xp_2_1 <= 4.49797501164976
 0 <= xp_2_2 <= 1.22917062738355
 0 <= xp_2_3 <= 3.68751188215066
 0 <= xp_2_4 <= 1.22917062738355
 0 <= xp_3_0 <= 24.1377711754168
 0 <= xp_3_1 <= 6.14587112881781
 0 <= xp_3_2 <= 1.64789611716805
 0 <= xp_4_0 <= 25.9342444031697
 0 <= xp_5_0 <= 8.6447481343899
 0 <= xp_5_1 <= 8.6447481343899
 0 <= xp_5_2 <= 8.6447481343899
 0 <= xp_6_0 <= 15.5605466419018
 0 <= xp_6_1 <= 3.89013666047545
 0 <= xp_6_2 <= 3.89013666047545
 0 <= xp_7_0 <= 14.9121905318226
 0 <= xp_7_1 <= 7.45609526591129
 0 <= xp_8_0 <= 20.0990394124565
 0 <= xp_9_0 <= 18.6402381647782
 0 <= xp_10_0 <= 18.6402381647782
 0 <= xp_11_0 <= 26.9878500698985
 0 <= xp_11_1 <= 12.3457539415755
 0 <= xp_11_2 <= 8.99595002329951
 0 <= xp_11_3 <= 10.6708519824375
 0 <= xp_12_0 <= 17.5056149721395
 0 <= xp_13_0 <= 14.1827899079834
 0 <= xp_13_1 <= 2.83655798159669
 0 <= xp_14_0 <= 10.8059351679874
 0 <= xp_14_1 <= 5.40296758399369
 0 <= xp_15_0 <= 16.0468137244612
 0 <= xp_16_0 <= 15.398457614382
 0 <= xp_17_0 <= 30
 0 <= xp_17_1 <= 9.03644979030441
 0 <= xp_17_2 <= 3.01214993010147
 0 <= xp_17_3 <= 3.01214993010147
 0 <= xp_18_0 <= 23.3678437967227
 0 <= xp_18_1 <= 9.87391876177345
 0 <= xp_18_2 <= 4.49797501164976
 0 <= xp_18_3 <= 5.3759437501237
 0 <= xp_19_0 <= 29.5947774312005
 0 <= xp_19_1 <= 5.21385472260388
 0 <= xp_19_2 <= 2.60692736130194
 0 <= xp_19_3 <= 5.21385472260388
 0 <= xp_20_0 <= 25.4074595617053
 0 <= xp_20_1 <= 9.44168135505396
 0 <= xp_20_2 <= 6.96982818335186
 0 <= xp_21_0 <= 24.5159699103464
 0 <= xp_21_1 <= 8.84735492081465
 0 <= xp_21_2 <= 2.17468995458245
 0 <= xp_21_3 <= 4.49797501164976
 0 <= xp_22_0 <= 16.6141163248306
 0 <= xp_22_1 <= 4.49797501164976
 0 <= xp_22_2 <= 1.90454157538276
 0 <= xp_22_3 <= 15.398466610332
 0 <= xp_23_0 <= 23.7055247727473
 0 <= xp_23_1 <= 10.211599737798
 0 <= xp_23_2 <= 4.49797501164976

End
